c   #vars: 73   #clauses: 332   #literals: 908
c 
p cnf 73 332
-1 -2 0
-3 -4 0
-5 -6 0
-7 -8 0
-9 -10 0
35 36 55 56 0
12 13 62 63 0
18 -48 55 56 0
-12 -13 0
-14 -15 0
-16 -17 0
1 2 31 -66 0
-19 -20 0
-21 -22 0
-23 -24 0
-25 -26 0
-27 -28 0
-29 -30 0
-16 46 47 57 0
-33 -34 0
-35 -36 0
-37 -38 0
-40 -41 0
-42 -43 0
-44 -45 0
-46 -47 0
-48 -49 0
19 20 60 61 0
-50 -51 0
25 26 52 53 0
18 -29 48 49 0
-52 -53 0
14 15 46 47 0
-55 -56 0
-58 -59 0
-60 -61 0
16 17 46 47 0
-62 -63 0
-64 -65 0
16 17 60 61 0
-66 -67 0
9 10 40 41 0
-68 -69 0
7 8 46 47 0
-70 -71 0
-72 -73 0
-12 33 34 54 0
-2 -31 0
3 4 44 45 0
-1 -42 0
-2 -43 0
-1 -60 0
-2 -61 0
3 4 37 38 0
-1 -64 0
-2 -65 0
7 8 35 36 0
-1 -68 0
-2 -69 0
3 4 39 -72 0
-3 -37 0
-4 -38 0
-4 -39 0
16 17 -21 32 0
-3 -44 0
-4 -45 0
-3 -64 0
-4 -65 0
-3 -70 0
-4 -71 0
-5 -33 0
-6 -34 0
1 2 64 65 0
-5 -44 0
-6 -45 0
50 51 60 61 0
-5 -62 0
-6 -63 0
35 36 62 63 0
-5 -66 0
-6 -67 0
7 8 29 30 0
-7 -29 0
-8 -30 0
18 48 49 -55 0
-7 -35 0
-8 -36 0
21 22 55 56 0
-7 -46 0
-8 -47 0
-7 -48 0
-8 -49 0
48 49 66 67 0
40 41 70 71 0
11 29 30 -64 0
16 17 68 69 0
-7 -66 0
-8 -67 0
21 22 -23 32 0
-7 -72 0
-8 -73 0
25 26 -33 54 0
-9 -27 0
-10 -28 0
5 6 44 45 0
-9 -40 0
-10 -41 0
33 34 55 56 0
19 20 50 51 0
-9 -52 0
-10 -53 0
19 20 37 38 0
-9 -62 0
-10 -63 0
-9 -64 0
-10 -65 0
23 24 70 71 0
-21 23 24 32 0
5 6 62 63 0
-16 23 24 32 0
21 22 70 71 0
18 -29 55 56 0
-11 -30 0
9 10 62 63 0
18 29 30 -55 0
-11 -51 0
35 36 70 71 0
18 29 30 -48 0
-11 -65 0
12 13 48 49 0
-12 -48 0
-13 -49 0
42 43 70 71 0
-12 -52 0
-13 -53 0
3 4 64 65 0
-13 -54 0
29 30 62 63 0
-12 -62 0
-13 -63 0
-14 -46 0
-15 -47 0
-14 -48 0
-15 -49 0
-3 21 22 39 0
-14 -55 0
-15 -56 0
1 2 60 61 0
-14 -72 0
-15 -73 0
19 20 46 47 0
-21 39 72 73 0
11 -29 50 51 0
-3 39 72 73 0
21 22 66 67 0
-16 -27 0
-17 -28 0
16 17 -46 57 0
-17 -32 0
-16 -46 0
-17 -47 0
21 22 37 38 0
-16 -55 0
-17 -56 0
-17 -57 0
5 6 66 67 0
-16 -60 0
-17 -61 0
11 -50 64 65 0
-16 -68 0
-17 -69 0
-25 31 66 67 0
1 2 -25 31 0
-18 -30 0
27 28 60 61 0
25 26 31 -66 0
-18 -49 0
-1 25 26 31 0
-18 -56 0
23 24 35 36 0
-19 -27 0
-20 -28 0
48 49 58 59 0
-19 -37 0
-20 -38 0
23 24 40 41 0
-19 -46 0
-20 -47 0
50 51 68 69 0
-19 -50 0
-20 -51 0
-19 -60 0
-20 -61 0
7 8 72 73 0
-19 -70 0
-20 -71 0
21 22 27 28 0
-21 -27 0
-22 -28 0
5 6 33 34 0
16 17 -42 57 0
-22 -32 0
9 10 27 28 0
-21 -37 0
-22 -38 0
7 8 66 67 0
-22 -39 0
16 17 27 28 0
-21 -55 0
-22 -56 0
-21 -66 0
-22 -67 0
27 28 66 67 0
-21 -70 0
-22 -71 0
42 43 -46 57 0
-24 -32 0
46 47 60 61 0
-23 -35 0
-24 -36 0
-23 -40 0
-24 -41 0
23 24 42 43 0
-23 -42 0
-24 -43 0
42 43 68 69 0
-23 -52 0
-24 -53 0
1 2 42 43 0
-23 -70 0
-24 -71 0
-26 -31 0
16 17 -23 32 0
-25 -52 0
-26 -53 0
3 4 -21 39 0
-26 -54 0
-25 -68 0
-26 -69 0
-27 -60 0
-28 -61 0
7 8 48 49 0
19 20 70 71 0
11 29 30 -50 0
-27 -66 0
-28 -67 0
37 38 64 65 0
-29 -62 0
-30 -63 0
-12 25 26 54 0
-31 -67 0
46 47 58 59 0
12 13 -25 54 0
-25 33 34 54 0
-34 -54 0
-33 -55 0
-34 -56 0
19 20 27 28 0
-33 -58 0
-34 -59 0
12 13 -33 54 0
-35 -55 0
-36 -56 0
11 50 51 -64 0
-35 -62 0
-36 -63 0
11 -29 64 65 0
-35 -70 0
-36 -71 0
44 45 64 65 0
-37 -64 0
-38 -65 0
48 49 72 73 0
-7 -8 29 30 0
-39 -73 0
14 15 55 56 0
-40 -58 0
-41 -59 0
14 15 48 49 0
-40 -70 0
-41 -71 0
23 24 52 53 0
-42 -55 0
-43 -56 0
40 41 58 59 0
-43 -57 0
-42 -68 0
-43 -69 0
9 10 52 53 0
-42 -70 0
-43 -71 0
42 43 55 56 0
-44 -52 0
-45 -53 0
44 45 52 53 0
-44 -64 0
-45 -65 0
33 34 58 59 0
21 22 39 -72 0
-47 -57 0
-46 -58 0
-47 -59 0
-16 21 22 32 0
-46 -60 0
-47 -61 0
14 15 72 73 0
-48 -58 0
-49 -59 0
48 49 62 63 0
-48 -62 0
-49 -63 0
3 4 70 71 0
-48 -66 0
-49 -67 0
7 8 -29 -30 0
-48 -72 0
-49 -73 0
-1 31 66 67 0
1 2 68 69 0
-50 -60 0
-51 -61 0
25 26 68 69 0
-50 -64 0
-51 -65 0
12 13 52 53 0
-50 -68 0
-51 -69 0
9 10 64 65 0
-16 42 43 57 0
50 51 64 65 0
16 17 55 56 0
-42 46 47 57 0
